# Define variables for temperature and pressure
variable        T equal 100.0
variable        P equal 1.0

units           real
boundary        p p p
atom_style      full

pair_style      hybrid lj/charmm/coul/long 15.2 15.3 buck/coul/long 15.2 15.3
bond_style      harmonic
angle_style     harmonic
dihedral_style  charmm

kspace_style    ewald/disp 1.0e-4
kspace_modify   force/disp/real 1e-4
kspace_modify   force/disp/kspace 1e-3
kspace_modify   diff ik

read_data       lmp_atoms_NOE

# For testing change it to e.g. 2 2 2
replicate       10 10 2   

include         paircoeff_NOE

timestep        1

velocity        all create 300.0 4540 mom yes dist gaussian

thermo_style    custom step time etotal pe ke temp press vol lx ly lz
thermo          1000

# Run initial equilibration in NVE ensemble
fix             1 all nve
run             30000

# Restart point at nve
write_restart	fixed_nve_NOE.equil

unfix		1

# Run equilibration in NPT ensemble
fix             2 all npt temp ${T} ${T} 100.0 aniso ${P} ${P} 1000.0
run		50000

# Restart point after npt at a chosen T and P
write_restart	restart_T${T}_P${P}_NOE.equil

unfix		2
