# Created by G. Lauffer
# PbINOE compressibility. Starts from a P= 1atm equilibrated file.

variable        T equal 100.0

read_restart	restart_T${T}_P1_NOE.equil

pair_style      hybrid lj/charmm/coul/long 15.2 15.3 buck/coul/long 15.2 15.3

kspace_style    ewald/disp 1.0e-4
kspace_modify   force/disp/real 1e-4
kspace_modify   force/disp/kspace 1e-3
kspace_modify   diff ik

include         paircoeff_NOE
timestep        1

thermo_style    custom step time etotal pe ke temp press vol lx ly lz
thermo          1000

# Define compute of pressure
compute 	output_pressure all pressure thermo_temp

# Variables for box dimensions
variable lx equal lx
variable ly equal ly
variable lz equal lz

#start point 1.0 atm
fix 		1 all npt temp ${T} ${T} 100.0 aniso 1.0 1.0 1000.0
fix             2 all ave/time 1 100 100 c_output_pressure v_lx v_ly v_lz file fix_compute_box_NOE_T${T}.txt

run		50000
unfix		1

# 1.0 atm to 1000.0 atm

fix             3 all npt temp ${T} ${T} 100.0 aniso 1.0 1000.0 1000.0

run 		30000
unfix 		3

fix 		4 all npt temp ${T} ${T} 100.0 aniso 1000.0 1000.0 1000.0
run 		50000
write_restart   restart_T${T}_P1000_NOE.equil
unfix 		4

# 1000.0 atm to 2000.0 atm 
fix             5 all npt temp ${T} ${T} 100.0 aniso 1000.0 2000.0 1000.0
run 		30000
unfix 		5

fix 		6 all npt temp ${T} ${T} 100.0 aniso 2000.0 2000.0 1000.0
run 		50000
write_restart   restart_T${T}_P2000_NOE.equil
unfix 		6

# 2000.0 atm to 3000.0 atm
fix             7 all npt temp ${T} ${T} 100.0 aniso 2000.0 3000.0 1000.0
run 		30000
unfix 		7

fix 		8 all npt temp ${T} ${T} 100.0 aniso 3000.0 3000.0 1000.0
run 		50000
write_restart   restart_T${T}_P3000_NOE.equil
unfix 		8

# 3000.0 atm to 4000.0 atm
fix             9 all npt temp ${T} ${T} 100.0 aniso 3000.0 4000.0 1000.0
run 		30000
unfix 		9

fix 		10 all npt temp ${T} ${T} 100.0 aniso 4000.0 4000.0 1000.0
run 		50000
write_restart   restart_T${T}_P4000_NOE.equil
unfix 		10

# 4000.0 atm to 5000.0 atm
fix             11 all npt temp ${T} ${T} 100.0 aniso 4000.0 5000.0 1000.0
run 		30000
unfix 		11

fix 		12 all npt temp ${T} ${T} 100.0 aniso 5000.0 5000.0 1000.0
run 		50000
write_restart   restart_T${T}_P5000_NOE.equil
unfix 		12




