pair_coeff 1 1 buck/coul/long 70359906.629702002 0.13125800000000001 0.0000000000000000
pair_coeff 1 2 buck/coul/long 103496.13301000001 0.32173700000000000 0.0000000000000000 
pair_coeff 1 3 buck/coul/long 32690390.937995002 0.15094700000000000 0.0000000000000000 
pair_coeff 1 4 buck/coul/long 32690390.937995002 0.15094700000000000 0.0000000000000000 
pair_coeff 1 5 buck/coul/long 32690390.937995002 0.15094700000000000 0.0000000000000000 
pair_coeff 1 6 buck/coul/long 32690390.937995002 0.15094700000000000 0.0000000000000000 
pair_coeff 1 7 buck/coul/long 32690390.937995002 0.15094700000000000 0.0000000000000000
pair_coeff 1 8 buck/coul/long 32690390.937995002 0.15094700000000000 0.0000000000000000
pair_coeff 1 9 buck/coul/long 32690390.937995002 0.15094700000000000 0.0000000000000000
pair_coeff 1 10 buck/coul/long 32690390.937995002 0.15094700000000000 0.0000000000000000
pair_coeff 1 11 buck/coul/long 32690390.937995002 0.15094700000000000 0.0000000000000000
pair_coeff 1 12 buck/coul/long 32690390.937995002 0.15094700000000000 0.0000000000000000
pair_coeff 1 13 buck/coul/long 32690390.937995002 0.15094700000000000 0.0000000000000000
pair_coeff 1 14 buck/coul/long 32690390.937995002 0.15094700000000000 0.0000000000000000
pair_coeff 1 15 buck/coul/long 32690390.937995002 0.15094700000000000 0.0000000000000000
pair_coeff 1 16 buck/coul/long 32690390.937995002 0.15094700000000000 0.0000000000000000 
pair_coeff 1 17 lj/charmm/coul/long 1.4000000000000000E-002 2.2645400000000002 
pair_coeff 1 18 lj/charmm/coul/long 1.4000000000000000E-002 2.7099899999999999 
pair_coeff 1 19 lj/charmm/coul/long 1.4000000000000000E-002 2.7099899999999999
pair_coeff 1 20 lj/charmm/coul/long 1.4000000000000000E-002 2.7099899999999999
pair_coeff 1 21 lj/charmm/coul/long 1.4000000000000000E-002 2.7099899999999999
pair_coeff 1 22 lj/charmm/coul/long 1.4000000000000000E-002 2.7099899999999999
pair_coeff 1 23 lj/charmm/coul/long 1.4000000000000000E-002 2.7099899999999999
pair_coeff 1 24 lj/charmm/coul/long 1.4000000000000000E-002 2.7099899999999999
pair_coeff 1 25 lj/charmm/coul/long 1.4000000000000000E-002 2.7099899999999999
pair_coeff 1 26 lj/charmm/coul/long 1.4000000000000000E-002 2.7099899999999999 
pair_coeff 2 2 buck/coul/long 22793.338582000000 0.48221700000000001 696.94954199999995 
pair_coeff 2 3 buck/coul/long 112936.71421300001 0.34242600000000001 0.0000000000000000 
pair_coeff 2 4 buck/coul/long 112936.71421300001 0.34242600000000001 0.0000000000000000 
pair_coeff 2 5 buck/coul/long 112936.71421300001 0.34242600000000001 0.0000000000000000 
pair_coeff 2 6 buck/coul/long 112936.71421300001 0.34242600000000001 0.0000000000000000 
pair_coeff 2 7 buck/coul/long 112936.71421300001 0.34242600000000001 0.0000000000000000
pair_coeff 2 8 buck/coul/long 112936.71421300001 0.34242600000000001 0.0000000000000000
pair_coeff 2 9 buck/coul/long 112936.71421300001 0.34242600000000001 0.0000000000000000
pair_coeff 2 10 buck/coul/long 112936.71421300001 0.34242600000000001 0.0000000000000000
pair_coeff 2 11 buck/coul/long 112936.71421300001 0.34242600000000001 0.0000000000000000
pair_coeff 2 12 buck/coul/long 112936.71421300001 0.34242600000000001 0.0000000000000000
pair_coeff 2 13 buck/coul/long 112936.71421300001 0.34242600000000001 0.0000000000000000
pair_coeff 2 14 buck/coul/long 112936.71421300001 0.34242600000000001 0.0000000000000000
pair_coeff 2 15 buck/coul/long 112936.71421300001 0.34242600000000001 0.0000000000000000
pair_coeff 2 16 buck/coul/long 112936.71421300001 0.34242600000000001 0.0000000000000000
pair_coeff 2 17 lj/charmm/coul/long 5.7400000000000000E-002 2.7500000000000000
pair_coeff 2 18 lj/charmm/coul/long 5.7400000000000000E-002 3.1000000000000001 
pair_coeff 2 19 lj/charmm/coul/long 5.7400000000000000E-002 3.1000000000000001
pair_coeff 2 20 lj/charmm/coul/long 5.7400000000000000E-002 3.1000000000000001
pair_coeff 2 21 lj/charmm/coul/long 5.7400000000000000E-002 3.1000000000000001
pair_coeff 2 22 lj/charmm/coul/long 5.7400000000000000E-002 3.1000000000000001
pair_coeff 2 23 lj/charmm/coul/long 5.7400000000000000E-002 3.1000000000000001
pair_coeff 2 24 lj/charmm/coul/long 5.7400000000000000E-002 3.1000000000000001
pair_coeff 2 25 lj/charmm/coul/long 5.7400000000000000E-002 3.1000000000000001
pair_coeff 2 26 lj/charmm/coul/long 5.7400000000000000E-002 3.1000000000000001 
pair_coeff 3 3 lj/charmm/coul/long 0.17000000000000000 3.6840000000000000 
pair_coeff 3 4 lj/charmm/coul/long 0.17000000000000000 3.5077000000000000 
pair_coeff 3 5 lj/charmm/coul/long 0.12091000000000000 3.7320000000000000
pair_coeff 3 6 lj/charmm/coul/long 0.12091000000000000 3.7320000000000000
pair_coeff 3 7 lj/charmm/coul/long 0.12091000000000000 3.7320000000000000
pair_coeff 3 8 lj/charmm/coul/long 0.12091000000000000 3.7320000000000000
pair_coeff 3 9 lj/charmm/coul/long 0.12091000000000000 3.7320000000000000
pair_coeff 3 10 lj/charmm/coul/long 0.12091000000000000 3.7320000000000000
pair_coeff 3 11 lj/charmm/coul/long 0.12091000000000000 3.7320000000000000
pair_coeff 3 12 lj/charmm/coul/long 0.12091000000000000 3.7320000000000000
pair_coeff 3 13 lj/charmm/coul/long 0.12091000000000000 3.7320000000000000
pair_coeff 3 14 lj/charmm/coul/long 0.12091000000000000 3.7320000000000000 
pair_coeff 3 15 lj/charmm/coul/long 0.13637000000000000 3.7320000000000000
pair_coeff 3 16 lj/charmm/coul/long 0.13637000000000000 3.7320000000000000 
pair_coeff 3 17 lj/charmm/coul/long 0.05166000000000000 2.4240000000000000 
pair_coeff 3 18 lj/charmm/coul/long 0.05166000000000000 3.3110000000000000 
pair_coeff 3 19 lj/charmm/coul/long 0.05166000000000000 3.3110000000000000
pair_coeff 3 20 lj/charmm/coul/long 0.05166000000000000 3.3110000000000000
pair_coeff 3 21 lj/charmm/coul/long 0.05166000000000000 3.3110000000000000
pair_coeff 3 22 lj/charmm/coul/long 0.05166000000000000 3.3110000000000000
pair_coeff 3 23 lj/charmm/coul/long 0.05166000000000000 3.3110000000000000
pair_coeff 3 24 lj/charmm/coul/long 0.05166000000000000 3.3110000000000000
pair_coeff 3 25 lj/charmm/coul/long 0.05166000000000000 3.3110000000000000
pair_coeff 3 26 lj/charmm/coul/long 0.05166000000000000 3.3110000000000000 
pair_coeff 4 4 lj/charmm/coul/long 0.17000000000000000 3.3674000000000000 
pair_coeff 4 5 lj/charmm/coul/long 0.12091000000000000 3.5917000000000000
pair_coeff 4 6 lj/charmm/coul/long 0.12091000000000000 3.5917000000000000
pair_coeff 4 7 lj/charmm/coul/long 0.12091000000000000 3.5917000000000000
pair_coeff 4 8 lj/charmm/coul/long 0.12091000000000000 3.5917000000000000
pair_coeff 4 9 lj/charmm/coul/long 0.12091000000000000 3.5917000000000000
pair_coeff 4 10 lj/charmm/coul/long 0.12091000000000000 3.5917000000000000
pair_coeff 4 11 lj/charmm/coul/long 0.12091000000000000 3.5917000000000000
pair_coeff 4 12 lj/charmm/coul/long 0.12091000000000000 3.5917000000000000
pair_coeff 4 13 lj/charmm/coul/long 0.12091000000000000 3.5917000000000000
pair_coeff 4 14 lj/charmm/coul/long 0.12091000000000000 3.5917000000000000 
pair_coeff 4 15 lj/charmm/coul/long 0.13637000000000000 3.5917000000000000
pair_coeff 4 16 lj/charmm/coul/long 0.13637000000000000 3.5917000000000000
pair_coeff 4 17 lj/charmm/coul/long 0.05166000000000000 2.2837000000000000 
pair_coeff 4 18 lj/charmm/coul/long 0.05166000000000000 3.1707000000000000 
pair_coeff 4 19 lj/charmm/coul/long 0.05166000000000000 3.1707000000000000
pair_coeff 4 20 lj/charmm/coul/long 0.05166000000000000 3.1707000000000000 
pair_coeff 4 21 lj/charmm/coul/long 0.05166000000000000 3.1707000000000000 
pair_coeff 4 22 lj/charmm/coul/long 0.05166000000000000 3.1707000000000000 
pair_coeff 4 23 lj/charmm/coul/long 0.05166000000000000 3.1707000000000000 
pair_coeff 4 24 lj/charmm/coul/long 0.05166000000000000 3.1707000000000000 
pair_coeff 4 25 lj/charmm/coul/long 0.05166000000000000 3.1707000000000000 
pair_coeff 4 26 lj/charmm/coul/long 0.05166000000000000 3.1707000000000000 
pair_coeff 5 5 lj/charmm/coul/long 0.08600000000000000 3.8160000000000000
pair_coeff 5 6 lj/charmm/coul/long 0.08600000000000000 3.8160000000000000
pair_coeff 5 7 lj/charmm/coul/long 0.08600000000000000 3.8160000000000000
pair_coeff 5 8 lj/charmm/coul/long 0.08600000000000000 3.8160000000000000
pair_coeff 5 9 lj/charmm/coul/long 0.08600000000000000 3.8160000000000000
pair_coeff 5 10 lj/charmm/coul/long 0.08600000000000000 3.8160000000000000
pair_coeff 5 11 lj/charmm/coul/long 0.08600000000000000 3.8160000000000000
pair_coeff 5 12 lj/charmm/coul/long 0.08600000000000000 3.8160000000000000
pair_coeff 5 13 lj/charmm/coul/long 0.08600000000000000 3.8160000000000000
pair_coeff 5 14 lj/charmm/coul/long 0.08600000000000000 3.8160000000000000 
pair_coeff 5 15 lj/charmm/coul/long 0.09700000000000000 3.8160000000000000 
pair_coeff 5 16 lj/charmm/coul/long 0.09700000000000000 3.8160000000000000  
pair_coeff 5 17 lj/charmm/coul/long 0.03675000000000000 2.5080000000000000 
pair_coeff 5 18 lj/charmm/coul/long 0.03675000000000000 3.3950000000000000 
pair_coeff 5 19 lj/charmm/coul/long 0.03675000000000000 3.3950000000000000
pair_coeff 5 20 lj/charmm/coul/long 0.03675000000000000 3.3950000000000000
pair_coeff 5 21 lj/charmm/coul/long 0.03675000000000000 3.3950000000000000
pair_coeff 5 22 lj/charmm/coul/long 0.03675000000000000 3.3950000000000000
pair_coeff 5 23 lj/charmm/coul/long 0.03675000000000000 3.3950000000000000
pair_coeff 5 24 lj/charmm/coul/long 0.03675000000000000 3.3950000000000000
pair_coeff 5 25 lj/charmm/coul/long 0.03675000000000000 3.3950000000000000
pair_coeff 5 26 lj/charmm/coul/long 0.03675000000000000 3.3950000000000000 
pair_coeff 6 6 lj/charmm/coul/long 0.08600000000000000 3.8160000000000000
pair_coeff 6 7 lj/charmm/coul/long 0.08600000000000000 3.8160000000000000
pair_coeff 6 8 lj/charmm/coul/long 0.08600000000000000 3.8160000000000000
pair_coeff 6 9 lj/charmm/coul/long 0.08600000000000000 3.8160000000000000
pair_coeff 6 10 lj/charmm/coul/long 0.08600000000000000 3.8160000000000000
pair_coeff 6 11 lj/charmm/coul/long 0.08600000000000000 3.8160000000000000
pair_coeff 6 12 lj/charmm/coul/long 0.08600000000000000 3.8160000000000000
pair_coeff 6 13 lj/charmm/coul/long 0.08600000000000000 3.8160000000000000
pair_coeff 6 14 lj/charmm/coul/long 0.08600000000000000 3.8160000000000000
pair_coeff 6 15 lj/charmm/coul/long 0.09700000000000000 3.8160000000000000
pair_coeff 6 16 lj/charmm/coul/long 0.09700000000000000 3.8160000000000000
pair_coeff 6 17 lj/charmm/coul/long 0.03675000000000000 2.5080000000000000
pair_coeff 6 18 lj/charmm/coul/long 0.03675000000000000 3.3950000000000000
pair_coeff 6 19 lj/charmm/coul/long 0.03675000000000000 3.3950000000000000
pair_coeff 6 20 lj/charmm/coul/long 0.03675000000000000 3.3950000000000000
pair_coeff 6 21 lj/charmm/coul/long 0.03675000000000000 3.3950000000000000
pair_coeff 6 22 lj/charmm/coul/long 0.03675000000000000 3.3950000000000000
pair_coeff 6 23 lj/charmm/coul/long 0.03675000000000000 3.3950000000000000
pair_coeff 6 24 lj/charmm/coul/long 0.03675000000000000 3.3950000000000000
pair_coeff 6 25 lj/charmm/coul/long 0.03675000000000000 3.3950000000000000
pair_coeff 6 26 lj/charmm/coul/long 0.03675000000000000 3.3950000000000000
pair_coeff 7 7 lj/charmm/coul/long 0.08600000000000000 3.8160000000000000
pair_coeff 7 8 lj/charmm/coul/long 0.08600000000000000 3.8160000000000000
pair_coeff 7 9 lj/charmm/coul/long 0.08600000000000000 3.8160000000000000
pair_coeff 7 10 lj/charmm/coul/long 0.08600000000000000 3.8160000000000000
pair_coeff 7 11 lj/charmm/coul/long 0.08600000000000000 3.8160000000000000
pair_coeff 7 12 lj/charmm/coul/long 0.08600000000000000 3.8160000000000000
pair_coeff 7 13 lj/charmm/coul/long 0.08600000000000000 3.8160000000000000
pair_coeff 7 14 lj/charmm/coul/long 0.08600000000000000 3.8160000000000000
pair_coeff 7 15 lj/charmm/coul/long 0.09700000000000000 3.8160000000000000
pair_coeff 7 16 lj/charmm/coul/long 0.09700000000000000 3.8160000000000000
pair_coeff 7 17 lj/charmm/coul/long 0.03675000000000000 2.5080000000000000
pair_coeff 7 18 lj/charmm/coul/long 0.03675000000000000 3.3950000000000000
pair_coeff 7 19 lj/charmm/coul/long 0.03675000000000000 3.3950000000000000
pair_coeff 7 20 lj/charmm/coul/long 0.03675000000000000 3.3950000000000000
pair_coeff 7 21 lj/charmm/coul/long 0.03675000000000000 3.3950000000000000
pair_coeff 7 22 lj/charmm/coul/long 0.03675000000000000 3.3950000000000000
pair_coeff 7 23 lj/charmm/coul/long 0.03675000000000000 3.3950000000000000
pair_coeff 7 24 lj/charmm/coul/long 0.03675000000000000 3.3950000000000000
pair_coeff 7 25 lj/charmm/coul/long 0.03675000000000000 3.3950000000000000
pair_coeff 7 26 lj/charmm/coul/long 0.03675000000000000 3.3950000000000000
pair_coeff 8 8 lj/charmm/coul/long 0.08600000000000000 3.8160000000000000
pair_coeff 8 9 lj/charmm/coul/long 0.08600000000000000 3.8160000000000000
pair_coeff 8 10 lj/charmm/coul/long 0.08600000000000000 3.8160000000000000
pair_coeff 8 11 lj/charmm/coul/long 0.08600000000000000 3.8160000000000000
pair_coeff 8 12 lj/charmm/coul/long 0.08600000000000000 3.8160000000000000
pair_coeff 8 13 lj/charmm/coul/long 0.08600000000000000 3.8160000000000000
pair_coeff 8 14 lj/charmm/coul/long 0.08600000000000000 3.8160000000000000
pair_coeff 8 15 lj/charmm/coul/long 0.09700000000000000 3.8160000000000000
pair_coeff 8 16 lj/charmm/coul/long 0.09700000000000000 3.8160000000000000
pair_coeff 8 17 lj/charmm/coul/long 0.03675000000000000 2.5080000000000000
pair_coeff 8 18 lj/charmm/coul/long 0.03675000000000000 3.3950000000000000
pair_coeff 8 19 lj/charmm/coul/long 0.03675000000000000 3.3950000000000000
pair_coeff 8 20 lj/charmm/coul/long 0.03675000000000000 3.3950000000000000
pair_coeff 8 21 lj/charmm/coul/long 0.03675000000000000 3.3950000000000000
pair_coeff 8 22 lj/charmm/coul/long 0.03675000000000000 3.3950000000000000
pair_coeff 8 23 lj/charmm/coul/long 0.03675000000000000 3.3950000000000000
pair_coeff 8 24 lj/charmm/coul/long 0.03675000000000000 3.3950000000000000
pair_coeff 8 25 lj/charmm/coul/long 0.03675000000000000 3.3950000000000000
pair_coeff 8 26 lj/charmm/coul/long 0.03675000000000000 3.3950000000000000
pair_coeff 9 9 lj/charmm/coul/long 0.08600000000000000 3.8160000000000000
pair_coeff 9 10 lj/charmm/coul/long 0.08600000000000000 3.8160000000000000
pair_coeff 9 11 lj/charmm/coul/long 0.08600000000000000 3.8160000000000000
pair_coeff 9 12 lj/charmm/coul/long 0.08600000000000000 3.8160000000000000
pair_coeff 9 13 lj/charmm/coul/long 0.08600000000000000 3.8160000000000000
pair_coeff 9 14 lj/charmm/coul/long 0.08600000000000000 3.8160000000000000
pair_coeff 9 15 lj/charmm/coul/long 0.09700000000000000 3.8160000000000000
pair_coeff 9 16 lj/charmm/coul/long 0.09700000000000000 3.8160000000000000
pair_coeff 9 17 lj/charmm/coul/long 0.03675000000000000 2.5080000000000000
pair_coeff 9 18 lj/charmm/coul/long 0.03675000000000000 3.3950000000000000
pair_coeff 9 19 lj/charmm/coul/long 0.03675000000000000 3.3950000000000000
pair_coeff 9 20 lj/charmm/coul/long 0.03675000000000000 3.3950000000000000
pair_coeff 9 21 lj/charmm/coul/long 0.03675000000000000 3.3950000000000000
pair_coeff 9 22 lj/charmm/coul/long 0.03675000000000000 3.3950000000000000
pair_coeff 9 23 lj/charmm/coul/long 0.03675000000000000 3.3950000000000000
pair_coeff 9 24 lj/charmm/coul/long 0.03675000000000000 3.3950000000000000
pair_coeff 9 25 lj/charmm/coul/long 0.03675000000000000 3.3950000000000000
pair_coeff 9 26 lj/charmm/coul/long 0.03675000000000000 3.3950000000000000
pair_coeff 10 10 lj/charmm/coul/long 0.08600000000000000 3.8160000000000000
pair_coeff 10 11 lj/charmm/coul/long 0.08600000000000000 3.8160000000000000
pair_coeff 10 12 lj/charmm/coul/long 0.08600000000000000 3.8160000000000000
pair_coeff 10 13 lj/charmm/coul/long 0.08600000000000000 3.8160000000000000
pair_coeff 10 14 lj/charmm/coul/long 0.08600000000000000 3.8160000000000000
pair_coeff 10 15 lj/charmm/coul/long 0.09700000000000000 3.8160000000000000
pair_coeff 10 16 lj/charmm/coul/long 0.09700000000000000 3.8160000000000000
pair_coeff 10 17 lj/charmm/coul/long 0.03675000000000000 2.5080000000000000
pair_coeff 10 18 lj/charmm/coul/long 0.03675000000000000 3.3950000000000000
pair_coeff 10 19 lj/charmm/coul/long 0.03675000000000000 3.3950000000000000
pair_coeff 10 20 lj/charmm/coul/long 0.03675000000000000 3.3950000000000000
pair_coeff 10 21 lj/charmm/coul/long 0.03675000000000000 3.3950000000000000
pair_coeff 10 22 lj/charmm/coul/long 0.03675000000000000 3.3950000000000000
pair_coeff 10 23 lj/charmm/coul/long 0.03675000000000000 3.3950000000000000
pair_coeff 10 24 lj/charmm/coul/long 0.03675000000000000 3.3950000000000000
pair_coeff 10 25 lj/charmm/coul/long 0.03675000000000000 3.3950000000000000
pair_coeff 10 26 lj/charmm/coul/long 0.03675000000000000 3.3950000000000000
pair_coeff 11 11 lj/charmm/coul/long 0.08600000000000000 3.8160000000000000
pair_coeff 11 12 lj/charmm/coul/long 0.08600000000000000 3.8160000000000000
pair_coeff 11 13 lj/charmm/coul/long 0.08600000000000000 3.8160000000000000
pair_coeff 11 14 lj/charmm/coul/long 0.08600000000000000 3.8160000000000000
pair_coeff 11 15 lj/charmm/coul/long 0.09700000000000000 3.8160000000000000
pair_coeff 11 16 lj/charmm/coul/long 0.09700000000000000 3.8160000000000000
pair_coeff 11 17 lj/charmm/coul/long 0.03675000000000000 2.5080000000000000
pair_coeff 11 18 lj/charmm/coul/long 0.03675000000000000 3.3950000000000000
pair_coeff 11 19 lj/charmm/coul/long 0.03675000000000000 3.3950000000000000
pair_coeff 11 20 lj/charmm/coul/long 0.03675000000000000 3.3950000000000000
pair_coeff 11 21 lj/charmm/coul/long 0.03675000000000000 3.3950000000000000
pair_coeff 11 22 lj/charmm/coul/long 0.03675000000000000 3.3950000000000000
pair_coeff 11 23 lj/charmm/coul/long 0.03675000000000000 3.3950000000000000
pair_coeff 11 24 lj/charmm/coul/long 0.03675000000000000 3.3950000000000000
pair_coeff 11 25 lj/charmm/coul/long 0.03675000000000000 3.3950000000000000
pair_coeff 11 26 lj/charmm/coul/long 0.03675000000000000 3.3950000000000000
pair_coeff 12 12 lj/charmm/coul/long 0.08600000000000000 3.8160000000000000
pair_coeff 12 13 lj/charmm/coul/long 0.08600000000000000 3.8160000000000000
pair_coeff 12 14 lj/charmm/coul/long 0.08600000000000000 3.8160000000000000
pair_coeff 12 15 lj/charmm/coul/long 0.09700000000000000 3.8160000000000000
pair_coeff 12 16 lj/charmm/coul/long 0.09700000000000000 3.8160000000000000
pair_coeff 12 17 lj/charmm/coul/long 0.03675000000000000 2.5080000000000000
pair_coeff 12 18 lj/charmm/coul/long 0.03675000000000000 3.3950000000000000
pair_coeff 12 19 lj/charmm/coul/long 0.03675000000000000 3.3950000000000000
pair_coeff 12 20 lj/charmm/coul/long 0.03675000000000000 3.3950000000000000
pair_coeff 12 21 lj/charmm/coul/long 0.03675000000000000 3.3950000000000000
pair_coeff 12 22 lj/charmm/coul/long 0.03675000000000000 3.3950000000000000
pair_coeff 12 23 lj/charmm/coul/long 0.03675000000000000 3.3950000000000000
pair_coeff 12 24 lj/charmm/coul/long 0.03675000000000000 3.3950000000000000
pair_coeff 12 25 lj/charmm/coul/long 0.03675000000000000 3.3950000000000000
pair_coeff 12 26 lj/charmm/coul/long 0.03675000000000000 3.3950000000000000
pair_coeff 13 13 lj/charmm/coul/long 0.08600000000000000 3.8160000000000000
pair_coeff 13 14 lj/charmm/coul/long 0.08600000000000000 3.8160000000000000
pair_coeff 13 15 lj/charmm/coul/long 0.09700000000000000 3.8160000000000000
pair_coeff 13 16 lj/charmm/coul/long 0.09700000000000000 3.8160000000000000
pair_coeff 13 17 lj/charmm/coul/long 0.03675000000000000 2.5080000000000000
pair_coeff 13 18 lj/charmm/coul/long 0.03675000000000000 3.3950000000000000
pair_coeff 13 19 lj/charmm/coul/long 0.03675000000000000 3.3950000000000000
pair_coeff 13 20 lj/charmm/coul/long 0.03675000000000000 3.3950000000000000
pair_coeff 13 21 lj/charmm/coul/long 0.03675000000000000 3.3950000000000000
pair_coeff 13 22 lj/charmm/coul/long 0.03675000000000000 3.3950000000000000
pair_coeff 13 23 lj/charmm/coul/long 0.03675000000000000 3.3950000000000000
pair_coeff 13 24 lj/charmm/coul/long 0.03675000000000000 3.3950000000000000
pair_coeff 13 25 lj/charmm/coul/long 0.03675000000000000 3.3950000000000000
pair_coeff 13 26 lj/charmm/coul/long 0.03675000000000000 3.3950000000000000
pair_coeff 14 14 lj/charmm/coul/long 0.08600000000000000 3.8160000000000000
pair_coeff 14 15 lj/charmm/coul/long 0.09700000000000000 3.8160000000000000
pair_coeff 14 16 lj/charmm/coul/long 0.09700000000000000 3.8160000000000000
pair_coeff 14 17 lj/charmm/coul/long 0.03675000000000000 2.5080000000000000
pair_coeff 14 18 lj/charmm/coul/long 0.03675000000000000 3.3950000000000000
pair_coeff 14 19 lj/charmm/coul/long 0.03675000000000000 3.3950000000000000
pair_coeff 14 20 lj/charmm/coul/long 0.03675000000000000 3.3950000000000000
pair_coeff 14 21 lj/charmm/coul/long 0.03675000000000000 3.3950000000000000
pair_coeff 14 22 lj/charmm/coul/long 0.03675000000000000 3.3950000000000000
pair_coeff 14 23 lj/charmm/coul/long 0.03675000000000000 3.3950000000000000
pair_coeff 14 24 lj/charmm/coul/long 0.03675000000000000 3.3950000000000000
pair_coeff 14 25 lj/charmm/coul/long 0.03675000000000000 3.3950000000000000
pair_coeff 14 26 lj/charmm/coul/long 0.03675000000000000 3.3950000000000000
pair_coeff 15 15 lj/charmm/coul/long 0.10940000000000000 3.8160000000000000 
pair_coeff 15 16 lj/charmm/coul/long 0.10940000000000000 3.8160000000000000
pair_coeff 15 17 lj/charmm/coul/long 0.04144000000000000 2.5080000000000000 
pair_coeff 15 18 lj/charmm/coul/long 0.04144000000000000 3.3950000000000000
pair_coeff 15 19 lj/charmm/coul/long 0.04144000000000000 3.3950000000000000
pair_coeff 15 20 lj/charmm/coul/long 0.04144000000000000 3.3950000000000000
pair_coeff 15 21 lj/charmm/coul/long 0.04144000000000000 3.3950000000000000
pair_coeff 15 22 lj/charmm/coul/long 0.04144000000000000 3.3950000000000000
pair_coeff 15 23 lj/charmm/coul/long 0.04144000000000000 3.3950000000000000
pair_coeff 15 24 lj/charmm/coul/long 0.04144000000000000 3.3950000000000000
pair_coeff 15 25 lj/charmm/coul/long 0.04144000000000000 3.3950000000000000
pair_coeff 15 26 lj/charmm/coul/long 0.04144000000000000 3.3950000000000000
pair_coeff 16 16 lj/charmm/coul/long 0.10940000000000000 3.8160000000000000
pair_coeff 16 17 lj/charmm/coul/long 0.04144000000000000 2.5080000000000000
pair_coeff 16 18 lj/charmm/coul/long 0.04144000000000000 3.3950000000000000
pair_coeff 16 19 lj/charmm/coul/long 0.04144000000000000 3.3950000000000000
pair_coeff 16 20 lj/charmm/coul/long 0.04144000000000000 3.3950000000000000
pair_coeff 16 21 lj/charmm/coul/long 0.04144000000000000 3.3950000000000000
pair_coeff 16 22 lj/charmm/coul/long 0.04144000000000000 3.3950000000000000
pair_coeff 16 23 lj/charmm/coul/long 0.04144000000000000 3.3950000000000000
pair_coeff 16 24 lj/charmm/coul/long 0.04144000000000000 3.3950000000000000
pair_coeff 16 25 lj/charmm/coul/long 0.04144000000000000 3.3950000000000000
pair_coeff 16 26 lj/charmm/coul/long 0.04144000000000000 3.3950000000000000
pair_coeff 17 17 lj/charmm/coul/long 0.01570000000000000 1.2000000000000000
pair_coeff 17 18 lj/charmm/coul/long 0.01570000000000000 2.0870000000000000 
pair_coeff 17 19 lj/charmm/coul/long 0.01570000000000000 2.0870000000000000 
pair_coeff 17 20 lj/charmm/coul/long 0.01570000000000000 2.0870000000000000 
pair_coeff 17 21 lj/charmm/coul/long 0.01570000000000000 2.0870000000000000 
pair_coeff 17 22 lj/charmm/coul/long 0.01570000000000000 2.0870000000000000 
pair_coeff 17 23 lj/charmm/coul/long 0.01570000000000000 2.0870000000000000 
pair_coeff 17 24 lj/charmm/coul/long 0.01570000000000000 2.0870000000000000 
pair_coeff 17 25 lj/charmm/coul/long 0.01570000000000000 2.0870000000000000 
pair_coeff 17 26 lj/charmm/coul/long 0.01570000000000000 2.0870000000000000 
pair_coeff 18 18 lj/charmm/coul/long 0.01570000000000000 2.9740000000000000
pair_coeff 18 19 lj/charmm/coul/long 0.01570000000000000 2.9740000000000000
pair_coeff 18 20 lj/charmm/coul/long 0.01570000000000000 2.9740000000000000
pair_coeff 18 21 lj/charmm/coul/long 0.01570000000000000 2.9740000000000000
pair_coeff 18 22 lj/charmm/coul/long 0.01570000000000000 2.9740000000000000
pair_coeff 18 23 lj/charmm/coul/long 0.01570000000000000 2.9740000000000000
pair_coeff 18 24 lj/charmm/coul/long 0.01570000000000000 2.9740000000000000
pair_coeff 18 25 lj/charmm/coul/long 0.01570000000000000 2.9740000000000000
pair_coeff 18 26 lj/charmm/coul/long 0.01570000000000000 2.9740000000000000
pair_coeff 19 19 lj/charmm/coul/long 0.01570000000000000 2.9740000000000000
pair_coeff 19 20 lj/charmm/coul/long 0.01570000000000000 2.9740000000000000
pair_coeff 19 21 lj/charmm/coul/long 0.01570000000000000 2.9740000000000000
pair_coeff 19 22 lj/charmm/coul/long 0.01570000000000000 2.9740000000000000
pair_coeff 19 23 lj/charmm/coul/long 0.01570000000000000 2.9740000000000000
pair_coeff 19 24 lj/charmm/coul/long 0.01570000000000000 2.9740000000000000
pair_coeff 19 25 lj/charmm/coul/long 0.01570000000000000 2.9740000000000000
pair_coeff 19 26 lj/charmm/coul/long 0.01570000000000000 2.9740000000000000
pair_coeff 20 20 lj/charmm/coul/long 0.01570000000000000 2.9740000000000000
pair_coeff 20 21 lj/charmm/coul/long 0.01570000000000000 2.9740000000000000
pair_coeff 20 22 lj/charmm/coul/long 0.01570000000000000 2.9740000000000000
pair_coeff 20 23 lj/charmm/coul/long 0.01570000000000000 2.9740000000000000
pair_coeff 20 24 lj/charmm/coul/long 0.01570000000000000 2.9740000000000000
pair_coeff 20 25 lj/charmm/coul/long 0.01570000000000000 2.9740000000000000
pair_coeff 20 26 lj/charmm/coul/long 0.01570000000000000 2.9740000000000000
pair_coeff 21 21 lj/charmm/coul/long 0.01570000000000000 2.9740000000000000
pair_coeff 21 22 lj/charmm/coul/long 0.01570000000000000 2.9740000000000000
pair_coeff 21 23 lj/charmm/coul/long 0.01570000000000000 2.9740000000000000
pair_coeff 21 24 lj/charmm/coul/long 0.01570000000000000 2.9740000000000000
pair_coeff 21 25 lj/charmm/coul/long 0.01570000000000000 2.9740000000000000
pair_coeff 21 26 lj/charmm/coul/long 0.01570000000000000 2.9740000000000000
pair_coeff 22 22 lj/charmm/coul/long 0.01570000000000000 2.9740000000000000
pair_coeff 22 23 lj/charmm/coul/long 0.01570000000000000 2.9740000000000000
pair_coeff 22 24 lj/charmm/coul/long 0.01570000000000000 2.9740000000000000
pair_coeff 22 25 lj/charmm/coul/long 0.01570000000000000 2.9740000000000000
pair_coeff 22 26 lj/charmm/coul/long 0.01570000000000000 2.9740000000000000
pair_coeff 23 23 lj/charmm/coul/long 0.01570000000000000 2.9740000000000000
pair_coeff 23 24 lj/charmm/coul/long 0.01570000000000000 2.9740000000000000
pair_coeff 23 25 lj/charmm/coul/long 0.01570000000000000 2.9740000000000000
pair_coeff 23 26 lj/charmm/coul/long 0.01570000000000000 2.9740000000000000
pair_coeff 24 24 lj/charmm/coul/long 0.01570000000000000 2.9740000000000000
pair_coeff 24 25 lj/charmm/coul/long 0.01570000000000000 2.9740000000000000
pair_coeff 24 26 lj/charmm/coul/long 0.01570000000000000 2.9740000000000000
pair_coeff 25 25 lj/charmm/coul/long 0.01570000000000000 2.9740000000000000
pair_coeff 25 26 lj/charmm/coul/long 0.01570000000000000 2.9740000000000000
pair_coeff 26 26 lj/charmm/coul/long 0.01570000000000000 2.9740000000000000
